2795.09-0	2685.83-1	2761.78-2	2731.2-3	2768.51-4	2768.27-5	2730.11-6	2708.36-7	2713.3-8	2791.04-9
1.0	1.0	1.0	1.0	1.0	1.0	1.0	1.0	1.0	1.0
280.0	2.0	2.0	2.0	4.0	2.0	2.0	5.0	5.0	2.0
3.0	242.0	280.0	242.0	277.0	242.0	242.0	6.0	6.0	280.0
279.0	243.0	3.0	243.0	5.0	243.0	243.0	7.0	7.0	3.0
278.0	241.0	279.0	241.0	6.0	241.0	244.0	9.0	8.0	279.0
248.0	240.0	278.0	244.0	7.0	244.0	241.0	8.0	9.0	278.0
249.0	239.0	248.0	245.0	8.0	247.0	240.0	10.0	10.0	248.0
256.0	238.0	249.0	240.0	10.0	250.0	245.0	11.0	11.0	243.0
258.0	237.0	250.0	239.0	9.0	251.0	246.0	12.0	12.0	242.0
259.0	236.0	251.0	246.0	276.0	230.0	239.0	13.0	13.0	241.0
260.0	235.0	230.0	231.0	275.0	229.0	238.0	15.0	15.0	244.0
261.0	234.0	229.0	238.0	274.0	228.0	237.0	14.0	14.0	247.0
262.0	233.0	228.0	237.0	273.0	233.0	236.0	24.0	24.0	245.0
263.0	232.0	233.0	232.0	272.0	232.0	235.0	23.0	23.0	240.0
257.0	231.0	232.0	233.0	271.0	231.0	234.0	25.0	25.0	239.0
254.0	246.0	231.0	236.0	16.0	246.0	233.0	22.0	22.0	246.0
255.0	245.0	246.0	235.0	15.0	245.0	232.0	26.0	26.0	231.0
252.0	244.0	245.0	234.0	11.0	240.0	231.0	27.0	27.0	238.0
253.0	247.0	247.0	226.0	12.0	239.0	230.0	28.0	28.0	237.0
208.0	248.0	244.0	225.0	13.0	238.0	229.0	29.0	29.0	236.0
209.0	249.0	243.0	224.0	14.0	237.0	228.0	31.0	31.0	235.0
210.0	250.0	242.0	223.0	24.0	236.0	227.0	32.0	32.0	234.0
211.0	251.0	241.0	222.0	23.0	235.0	226.0	33.0	33.0	233.0
212.0	230.0	240.0	221.0	25.0	234.0	225.0	34.0	36.0	232.0
207.0	229.0	239.0	220.0	22.0	227.0	224.0	35.0	37.0	228.0
206.0	228.0	238.0	219.0	26.0	226.0	223.0	36.0	38.0	227.0
205.0	227.0	237.0	218.0	27.0	225.0	222.0	37.0	49.0	226.0
204.0	226.0	236.0	217.0	28.0	224.0	221.0	38.0	50.0	225.0
144.0	225.0	235.0	216.0	29.0	223.0	220.0	39.0	51.0	224.0
145.0	224.0	234.0	215.0	126.0	219.0	219.0	48.0	52.0	223.0
199.0	223.0	227.0	227.0	127.0	222.0	218.0	49.0	53.0	222.0
198.0	219.0	226.0	228.0	128.0	221.0	217.0	50.0	48.0	221.0
197.0	222.0	225.0	229.0	21.0	220.0	216.0	51.0	47.0	220.0
193.0	221.0	224.0	230.0	20.0	217.0	215.0	52.0	54.0	219.0
186.0	220.0	223.0	251.0	19.0	218.0	214.0	53.0	55.0	218.0
187.0	217.0	222.0	250.0	18.0	215.0	213.0	54.0	46.0	217.0
185.0	218.0	221.0	247.0	17.0	216.0	212.0	55.0	45.0	216.0
184.0	215.0	220.0	248.0	133.0	213.0	211.0	56.0	56.0	215.0
183.0	216.0	219.0	249.0	132.0	214.0	210.0	57.0	57.0	214.0
182.0	213.0	218.0	256.0	131.0	211.0	209.0	58.0	58.0	213.0
181.0	214.0	217.0	258.0	130.0	212.0	252.0	59.0	68.0	212.0
176.0	211.0	216.0	257.0	129.0	207.0	255.0	44.0	69.0	207.0
180.0	210.0	215.0	254.0	154.0	210.0	251.0	45.0	67.0	206.0
179.0	207.0	214.0	255.0	155.0	209.0	250.0	46.0	70.0	208.0
150.0	212.0	213.0	252.0	153.0	208.0	247.0	47.0	71.0	209.0
149.0	204.0	212.0	253.0	156.0	206.0	248.0	40.0	72.0	210.0
148.0	205.0	211.0	208.0	152.0	205.0	249.0	41.0	73.0	211.0
147.0	206.0	210.0	209.0	157.0	204.0	256.0	42.0	74.0	229.0
146.0	208.0	207.0	210.0	119.0	203.0	258.0	43.0	75.0	230.0
143.0	209.0	206.0	211.0	120.0	202.0	259.0	60.0	76.0	251.0
142.0	252.0	208.0	214.0	121.0	200.0	261.0	61.0	77.0	250.0
141.0	253.0	209.0	213.0	122.0	201.0	260.0	118.0	78.0	249.0
140.0	254.0	252.0	212.0	123.0	198.0	276.0	62.0	79.0	256.0
139.0	255.0	253.0	207.0	124.0	199.0	275.0	63.0	80.0	255.0
138.0	256.0	254.0	206.0	125.0	145.0	274.0	64.0	81.0	252.0
137.0	257.0	255.0	205.0	30.0	144.0	273.0	65.0	82.0	253.0
267.0	258.0	256.0	204.0	31.0	143.0	272.0	66.0	89.0	254.0
266.0	259.0	257.0	203.0	32.0	146.0	271.0	67.0	109.0	257.0
265.0	260.0	258.0	202.0	33.0	147.0	16.0	68.0	90.0	258.0
264.0	261.0	259.0	200.0	34.0	142.0	17.0	69.0	91.0	259.0
268.0	262.0	260.0	201.0	36.0	141.0	18.0	70.0	92.0	260.0
136.0	263.0	261.0	198.0	35.0	140.0	133.0	71.0	93.0	261.0
135.0	264.0	262.0	197.0	39.0	148.0	134.0	72.0	94.0	262.0
269.0	265.0	263.0	196.0	38.0	149.0	270.0	73.0	95.0	263.0
270.0	267.0	264.0	195.0	37.0	139.0	135.0	74.0	96.0	264.0
134.0	268.0	265.0	194.0	50.0	138.0	269.0	76.0	97.0	265.0
133.0	269.0	205.0	193.0	51.0	137.0	268.0	75.0	98.0	205.0
132.0	270.0	204.0	192.0	52.0	267.0	136.0	77.0	99.0	204.0
19.0	134.0	203.0	191.0	49.0	266.0	137.0	78.0	100.0	203.0
18.0	135.0	202.0	190.0	48.0	265.0	267.0	79.0	101.0	202.0
17.0	136.0	201.0	189.0	53.0	264.0	138.0	80.0	102.0	201.0
16.0	137.0	200.0	188.0	54.0	263.0	139.0	90.0	103.0	200.0
271.0	138.0	144.0	187.0	55.0	268.0	140.0	109.0	104.0	144.0
272.0	266.0	143.0	186.0	46.0	136.0	266.0	89.0	105.0	145.0
273.0	140.0	142.0	185.0	47.0	135.0	265.0	81.0	108.0	199.0
274.0	141.0	141.0	184.0	40.0	269.0	264.0	82.0	110.0	198.0
275.0	142.0	140.0	183.0	41.0	270.0	263.0	83.0	111.0	197.0
276.0	143.0	266.0	182.0	42.0	134.0	262.0	88.0	112.0	196.0
277.0	144.0	138.0	161.0	43.0	133.0	257.0	112.0	88.0	195.0
4.0	203.0	137.0	162.0	60.0	17.0	254.0	113.0	83.0	194.0
5.0	202.0	267.0	163.0	44.0	18.0	253.0	87.0	84.0	193.0
6.0	200.0	268.0	164.0	45.0	19.0	208.0	84.0	87.0	192.0
7.0	201.0	136.0	165.0	56.0	132.0	207.0	85.0	113.0	191.0
8.0	196.0	135.0	166.0	57.0	131.0	206.0	86.0	114.0	190.0
9.0	195.0	269.0	167.0	58.0	20.0	205.0	116.0	115.0	186.0
10.0	194.0	270.0	168.0	59.0	21.0	204.0	117.0	117.0	187.0
11.0	192.0	134.0	172.0	64.0	130.0	203.0	115.0	116.0	189.0
12.0	191.0	133.0	171.0	63.0	129.0	202.0	114.0	86.0	188.0
13.0	193.0	17.0	170.0	62.0	128.0	200.0	111.0	85.0	165.0
15.0	197.0	18.0	169.0	61.0	127.0	199.0	110.0	66.0	166.0
14.0	198.0	19.0	102.0	118.0	126.0	145.0	108.0	65.0	167.0
24.0	199.0	132.0	101.0	117.0	30.0	144.0	104.0	64.0	168.0
23.0	145.0	131.0	100.0	115.0	125.0	143.0	105.0	63.0	169.0
25.0	146.0	20.0	99.0	158.0	124.0	146.0	106.0	62.0	170.0
22.0	147.0	21.0	98.0	159.0	123.0	147.0	107.0	118.0	171.0
26.0	148.0	130.0	97.0	160.0	122.0	142.0	173.0	61.0	172.0
27.0	139.0	129.0	96.0	175.0	154.0	141.0	174.0	60.0	164.0
28.0	149.0	128.0	95.0	161.0	155.0	148.0	161.0	59.0	163.0
29.0	150.0	127.0	94.0	162.0	153.0	149.0	162.0	44.0	185.0
31.0	178.0	126.0	93.0	163.0	156.0	150.0	163.0	43.0	184.0
32.0	177.0	30.0	92.0	174.0	152.0	179.0	164.0	42.0	183.0
33.0	151.0	125.0	91.0	173.0	151.0	180.0	172.0	41.0	182.0
34.0	152.0	124.0	90.0	107.0	177.0	181.0	171.0	40.0	181.0
35.0	156.0	123.0	89.0	106.0	178.0	176.0	170.0	39.0	180.0
39.0	153.0	122.0	109.0	105.0	150.0	177.0	169.0	35.0	179.0
38.0	155.0	154.0	108.0	104.0	179.0	178.0	101.0	34.0	150.0
36.0	154.0	155.0	104.0	103.0	180.0	151.0	102.0	30.0	178.0
37.0	129.0	153.0	103.0	102.0	176.0	152.0	103.0	125.0	177.0
50.0	130.0	156.0	105.0	92.0	181.0	156.0	91.0	124.0	176.0
51.0	131.0	152.0	106.0	91.0	182.0	153.0	92.0	123.0	159.0
52.0	132.0	151.0	107.0	90.0	183.0	155.0	93.0	122.0	160.0
49.0	133.0	178.0	173.0	80.0	184.0	154.0	94.0	121.0	175.0
48.0	17.0	177.0	174.0	79.0	185.0	129.0	95.0	120.0	161.0
53.0	18.0	176.0	175.0	81.0	187.0	130.0	96.0	119.0	162.0
54.0	19.0	181.0	160.0	89.0	186.0	131.0	97.0	157.0	174.0
47.0	20.0	180.0	159.0	82.0	193.0	132.0	98.0	158.0	173.0
46.0	21.0	179.0	158.0	83.0	197.0	19.0	99.0	159.0	107.0
55.0	128.0	150.0	157.0	88.0	196.0	20.0	100.0	160.0	106.0
56.0	127.0	149.0	119.0	112.0	195.0	21.0	168.0	175.0	105.0
45.0	126.0	139.0	120.0	109.0	194.0	128.0	167.0	161.0	104.0
44.0	125.0	148.0	121.0	108.0	192.0	127.0	166.0	174.0	108.0
57.0	124.0	147.0	122.0	110.0	191.0	126.0	165.0	107.0	109.0
58.0	123.0	146.0	123.0	111.0	190.0	30.0	188.0	106.0	89.0
59.0	122.0	145.0	124.0	114.0	189.0	125.0	189.0	173.0	88.0
63.0	121.0	199.0	125.0	113.0	188.0	124.0	190.0	171.0	112.0
64.0	120.0	198.0	34.0	116.0	165.0	123.0	191.0	172.0	110.0
65.0	119.0	197.0	35.0	86.0	164.0	122.0	192.0	170.0	111.0
86.0	157.0	196.0	39.0	87.0	163.0	121.0	193.0	169.0	114.0
85.0	158.0	195.0	40.0	84.0	162.0	120.0	186.0	168.0	113.0
66.0	159.0	194.0	48.0	85.0	161.0	119.0	187.0	167.0	87.0
67.0	160.0	193.0	47.0	65.0	175.0	157.0	185.0	166.0	86.0
68.0	176.0	192.0	46.0	66.0	160.0	158.0	184.0	165.0	116.0
69.0	179.0	191.0	41.0	67.0	159.0	159.0	183.0	164.0	115.0
70.0	180.0	190.0	42.0	68.0	158.0	160.0	182.0	163.0	117.0
71.0	181.0	189.0	43.0	69.0	157.0	175.0	175.0	162.0	118.0
72.0	182.0	188.0	60.0	70.0	119.0	182.0	160.0	182.0	61.0
73.0	183.0	187.0	61.0	71.0	120.0	183.0	159.0	183.0	62.0
74.0	184.0	186.0	118.0	72.0	121.0	184.0	158.0	184.0	63.0
75.0	185.0	185.0	117.0	73.0	60.0	185.0	157.0	185.0	65.0
76.0	187.0	184.0	115.0	74.0	61.0	187.0	119.0	186.0	85.0
77.0	186.0	183.0	116.0	76.0	118.0	186.0	177.0	187.0	84.0
78.0	190.0	182.0	86.0	75.0	117.0	193.0	176.0	188.0	83.0
95.0	189.0	161.0	85.0	77.0	116.0	197.0	181.0	189.0	82.0
96.0	188.0	162.0	84.0	78.0	115.0	198.0	180.0	190.0	81.0
97.0	165.0	163.0	87.0	95.0	114.0	201.0	179.0	191.0	79.0
94.0	164.0	164.0	113.0	96.0	113.0	196.0	150.0	192.0	80.0
93.0	163.0	165.0	114.0	97.0	87.0	195.0	178.0	193.0	90.0
98.0	162.0	166.0	111.0	94.0	86.0	194.0	151.0	197.0	91.0
99.0	161.0	167.0	110.0	93.0	85.0	192.0	152.0	194.0	92.0
100.0	175.0	168.0	112.0	98.0	84.0	191.0	156.0	195.0	103.0
101.0	174.0	169.0	88.0	99.0	83.0	190.0	153.0	196.0	102.0
92.0	173.0	170.0	83.0	100.0	88.0	189.0	155.0	201.0	101.0
91.0	107.0	171.0	82.0	101.0	112.0	188.0	154.0	198.0	100.0
90.0	106.0	172.0	81.0	169.0	111.0	165.0	120.0	199.0	99.0
80.0	105.0	106.0	80.0	170.0	110.0	164.0	121.0	200.0	98.0
79.0	104.0	105.0	79.0	171.0	108.0	163.0	122.0	202.0	93.0
81.0	90.0	107.0	78.0	172.0	109.0	162.0	123.0	203.0	94.0
89.0	91.0	173.0	77.0	168.0	89.0	161.0	124.0	204.0	97.0
109.0	92.0	174.0	76.0	167.0	82.0	174.0	125.0	205.0	96.0
108.0	103.0	175.0	75.0	166.0	81.0	173.0	30.0	206.0	95.0
104.0	102.0	160.0	74.0	165.0	79.0	106.0	126.0	208.0	78.0
103.0	101.0	159.0	73.0	164.0	80.0	107.0	127.0	207.0	77.0
102.0	169.0	158.0	72.0	188.0	90.0	110.0	128.0	212.0	75.0
169.0	170.0	157.0	71.0	189.0	91.0	111.0	129.0	213.0	76.0
168.0	171.0	119.0	70.0	190.0	92.0	114.0	130.0	216.0	74.0
167.0	172.0	120.0	69.0	191.0	102.0	115.0	21.0	217.0	73.0
166.0	166.0	121.0	68.0	192.0	101.0	117.0	20.0	220.0	72.0
172.0	167.0	118.0	67.0	193.0	169.0	118.0	131.0	221.0	71.0
171.0	168.0	117.0	66.0	186.0	103.0	61.0	132.0	222.0	70.0
170.0	100.0	115.0	65.0	187.0	104.0	62.0	19.0	219.0	69.0
105.0	99.0	116.0	64.0	185.0	105.0	63.0	133.0	218.0	68.0
106.0	98.0	86.0	63.0	184.0	106.0	64.0	18.0	215.0	67.0
173.0	97.0	85.0	62.0	183.0	107.0	65.0	17.0	214.0	66.0
174.0	96.0	84.0	59.0	182.0	174.0	66.0	16.0	211.0	64.0
107.0	95.0	83.0	58.0	181.0	173.0	85.0	271.0	210.0	58.0
110.0	94.0	88.0	57.0	180.0	170.0	84.0	272.0	209.0	57.0
111.0	93.0	87.0	44.0	179.0	171.0	87.0	273.0	252.0	56.0
112.0	80.0	113.0	45.0	176.0	172.0	86.0	274.0	253.0	45.0
88.0	79.0	114.0	56.0	177.0	166.0	116.0	275.0	254.0	44.0
82.0	78.0	111.0	55.0	151.0	167.0	113.0	276.0	255.0	59.0
83.0	77.0	112.0	54.0	178.0	168.0	112.0	277.0	250.0	60.0
84.0	75.0	110.0	53.0	150.0	100.0	88.0	4.0	251.0	43.0
87.0	76.0	108.0	52.0	149.0	99.0	83.0	3.0	230.0	42.0
113.0	74.0	104.0	51.0	148.0	98.0	82.0	279.0	229.0	41.0
114.0	73.0	103.0	50.0	147.0	93.0	81.0	278.0	228.0	40.0
115.0	72.0	102.0	49.0	146.0	94.0	79.0	248.0	227.0	46.0
116.0	71.0	101.0	38.0	145.0	97.0	80.0	249.0	226.0	55.0
117.0	70.0	100.0	37.0	199.0	96.0	90.0	250.0	223.0	54.0
118.0	67.0	99.0	36.0	198.0	95.0	89.0	247.0	224.0	47.0
62.0	69.0	92.0	33.0	197.0	78.0	109.0	244.0	225.0	48.0
61.0	68.0	91.0	32.0	194.0	77.0	108.0	245.0	234.0	53.0
60.0	58.0	90.0	31.0	195.0	76.0	104.0	246.0	235.0	52.0
43.0	57.0	109.0	30.0	196.0	75.0	105.0	251.0	236.0	51.0
42.0	44.0	89.0	126.0	201.0	74.0	170.0	230.0	233.0	50.0
41.0	59.0	82.0	127.0	200.0	73.0	172.0	229.0	232.0	49.0
40.0	62.0	81.0	29.0	202.0	72.0	171.0	209.0	237.0	37.0
120.0	63.0	79.0	28.0	203.0	71.0	166.0	208.0	238.0	38.0
121.0	64.0	80.0	27.0	144.0	70.0	167.0	253.0	231.0	39.0
122.0	65.0	94.0	26.0	143.0	69.0	168.0	252.0	246.0	35.0
123.0	66.0	93.0	22.0	142.0	68.0	169.0	255.0	239.0	36.0
124.0	85.0	98.0	25.0	141.0	67.0	102.0	254.0	240.0	34.0
125.0	86.0	97.0	23.0	140.0	66.0	103.0	256.0	241.0	33.0
30.0	116.0	96.0	24.0	139.0	65.0	91.0	257.0	242.0	32.0
126.0	113.0	95.0	14.0	138.0	64.0	92.0	258.0	243.0	31.0
127.0	87.0	78.0	15.0	137.0	63.0	101.0	259.0	244.0	30.0
128.0	84.0	77.0	13.0	136.0	62.0	100.0	260.0	245.0	125.0
21.0	83.0	75.0	12.0	135.0	59.0	99.0	261.0	247.0	124.0
20.0	88.0	76.0	11.0	134.0	58.0	98.0	262.0	248.0	123.0
131.0	82.0	74.0	10.0	270.0	57.0	93.0	263.0	249.0	122.0
130.0	81.0	73.0	8.0	269.0	56.0	94.0	264.0	256.0	121.0
129.0	89.0	72.0	7.0	268.0	55.0	97.0	265.0	257.0	120.0
154.0	109.0	71.0	9.0	267.0	54.0	96.0	140.0	258.0	119.0
155.0	108.0	66.0	275.0	266.0	53.0	95.0	266.0	259.0	157.0
153.0	110.0	65.0	274.0	265.0	48.0	78.0	267.0	260.0	158.0
156.0	112.0	64.0	273.0	264.0	47.0	77.0	268.0	261.0	151.0
152.0	111.0	67.0	272.0	263.0	46.0	75.0	269.0	262.0	152.0
151.0	114.0	70.0	271.0	262.0	45.0	76.0	270.0	263.0	156.0
178.0	115.0	69.0	16.0	261.0	44.0	74.0	134.0	264.0	153.0
177.0	117.0	68.0	270.0	260.0	43.0	73.0	135.0	265.0	155.0
119.0	118.0	58.0	269.0	259.0	42.0	72.0	136.0	266.0	154.0
157.0	61.0	57.0	135.0	258.0	41.0	71.0	137.0	267.0	129.0
158.0	60.0	44.0	134.0	257.0	40.0	70.0	138.0	268.0	130.0
159.0	43.0	59.0	133.0	254.0	39.0	67.0	139.0	269.0	131.0
160.0	42.0	63.0	17.0	253.0	49.0	69.0	149.0	135.0	132.0
175.0	41.0	62.0	18.0	208.0	52.0	68.0	148.0	136.0	133.0
161.0	40.0	61.0	19.0	207.0	51.0	58.0	141.0	137.0	134.0
162.0	47.0	60.0	132.0	206.0	50.0	57.0	142.0	138.0	135.0
163.0	46.0	43.0	131.0	205.0	37.0	56.0	147.0	140.0	136.0
164.0	45.0	42.0	130.0	204.0	38.0	45.0	146.0	141.0	137.0
165.0	56.0	41.0	20.0	212.0	36.0	44.0	143.0	142.0	138.0
188.0	55.0	40.0	21.0	211.0	35.0	59.0	144.0	143.0	139.0
189.0	54.0	39.0	128.0	210.0	34.0	60.0	145.0	144.0	149.0
190.0	53.0	48.0	129.0	209.0	33.0	43.0	199.0	145.0	148.0
191.0	52.0	47.0	154.0	252.0	32.0	42.0	198.0	146.0	147.0
192.0	51.0	46.0	155.0	255.0	31.0	41.0	197.0	147.0	146.0
194.0	50.0	45.0	153.0	256.0	29.0	40.0	194.0	148.0	143.0
195.0	49.0	56.0	156.0	249.0	28.0	39.0	195.0	139.0	142.0
196.0	48.0	55.0	152.0	250.0	27.0	48.0	196.0	149.0	141.0
201.0	39.0	54.0	151.0	251.0	26.0	47.0	201.0	150.0	140.0
200.0	38.0	53.0	178.0	230.0	22.0	46.0	200.0	179.0	266.0
202.0	37.0	52.0	177.0	229.0	25.0	55.0	202.0	180.0	267.0
203.0	36.0	51.0	176.0	228.0	23.0	54.0	203.0	181.0	268.0
213.0	35.0	50.0	181.0	214.0	24.0	53.0	204.0	176.0	269.0
214.0	34.0	49.0	180.0	213.0	14.0	52.0	205.0	177.0	270.0
215.0	33.0	38.0	179.0	216.0	13.0	51.0	206.0	178.0	17.0
216.0	32.0	37.0	150.0	215.0	12.0	50.0	207.0	151.0	18.0
217.0	31.0	36.0	149.0	218.0	11.0	49.0	210.0	152.0	19.0
218.0	30.0	35.0	148.0	217.0	15.0	38.0	211.0	156.0	20.0
219.0	29.0	34.0	147.0	220.0	16.0	37.0	212.0	153.0	21.0
220.0	28.0	33.0	146.0	221.0	271.0	36.0	213.0	155.0	128.0
221.0	27.0	32.0	145.0	222.0	272.0	35.0	214.0	154.0	127.0
222.0	26.0	31.0	199.0	219.0	273.0	34.0	215.0	129.0	126.0
223.0	22.0	29.0	144.0	223.0	274.0	33.0	216.0	126.0	29.0
224.0	25.0	28.0	143.0	224.0	275.0	32.0	217.0	127.0	28.0
225.0	23.0	27.0	142.0	225.0	9.0	31.0	218.0	128.0	27.0
226.0	24.0	26.0	141.0	226.0	10.0	29.0	219.0	21.0	26.0
227.0	14.0	22.0	140.0	227.0	8.0	28.0	220.0	130.0	22.0
234.0	13.0	25.0	139.0	234.0	7.0	27.0	221.0	131.0	25.0
235.0	12.0	23.0	138.0	235.0	6.0	26.0	222.0	20.0	23.0
236.0	11.0	24.0	137.0	236.0	5.0	22.0	223.0	19.0	24.0
237.0	15.0	14.0	136.0	233.0	4.0	25.0	224.0	132.0	14.0
238.0	16.0	13.0	268.0	232.0	277.0	23.0	225.0	133.0	13.0
239.0	271.0	15.0	267.0	237.0	276.0	24.0	226.0	18.0	15.0
246.0	272.0	16.0	266.0	238.0	260.0	14.0	227.0	17.0	16.0
231.0	273.0	271.0	265.0	231.0	261.0	15.0	228.0	134.0	271.0
232.0	274.0	272.0	264.0	246.0	262.0	13.0	233.0	270.0	272.0
233.0	275.0	273.0	263.0	239.0	259.0	12.0	234.0	16.0	273.0
228.0	276.0	12.0	262.0	240.0	258.0	11.0	235.0	271.0	12.0
229.0	9.0	11.0	261.0	241.0	257.0	10.0	236.0	272.0	11.0
230.0	10.0	10.0	259.0	242.0	254.0	9.0	237.0	273.0	10.0
251.0	8.0	8.0	260.0	243.0	253.0	8.0	232.0	274.0	8.0
250.0	7.0	7.0	276.0	244.0	252.0	7.0	231.0	275.0	7.0
247.0	6.0	9.0	277.0	245.0	255.0	6.0	238.0	276.0	9.0
245.0	5.0	274.0	6.0	247.0	256.0	5.0	239.0	277.0	274.0
240.0	4.0	275.0	5.0	248.0	249.0	4.0	240.0	4.0	275.0
241.0	277.0	276.0	4.0	278.0	248.0	277.0	241.0	278.0	276.0
244.0	278.0	277.0	278.0	279.0	278.0	278.0	243.0	279.0	277.0
243.0	279.0	4.0	279.0	3.0	279.0	279.0	242.0	3.0	4.0
242.0	3.0	6.0	3.0	280.0	3.0	3.0	2.0	280.0	6.0
2.0	280.0	5.0	280.0	2.0	280.0	280.0	280.0	2.0	5.0
1.0	1.0	1.0	1.0	1.0	1.0	1.0	1.0	1.0	1.0
